62 64 67 68 70 71 72 73 75 78 79 81 84 84 89 92 93 95 95 96 97 99 101 102 103 104 105 106 109 111 111 115 115 119 119 120 129 135 136 137 138 138 138 139 139 141 141 144 145 148 149 154 154 160 160 165 167 168 169 176